c --- [ banner ] -------------------------------------------------------------
c 
c CaDiCaL Radically Simplified CDCL SAT Solver
c Copyright (c) 2016-2021 A. Biere, M. Fleury, N. Froleyks
c 
c Version 1.5.2 ca9bff05c11bde5eae4912f9932871d1527e61d8
c g++ (GCC) 9.3.0 -Wall -Wextra -O3 -DNDEBUG
c Sun May 1 02:23:23 EDT 2022 Linux gra-login1 3.10.0-1160.59.1.el7.x86_64 x86_64
c 
c --- [ limit ] --------------------------------------------------------------
c 
c setting conflict limit to 200000 conflicts (due to '200000')
c 
c --- [ parsing input ] ------------------------------------------------------
c 
c reading DIMACS file from '26.cubes874.adj'
c opening file to read '26.cubes874.adj'
c found 'p cnf 5320 924214' header
c parsed 924214 clauses in 8.80 seconds process time
c closing file '26.cubes874.adj'
c after reading 686668142 bytes 654.9 MB
c 
c --- [ options ] ------------------------------------------------------------
c 
c all options are set to their default value
c 
c --- [ solving ] ------------------------------------------------------------
c 
c time measured in process time since initialization
c 
c  seconds   reductions  redundant  irredundant
c          MB    restarts       trail      variables
c           level   conflicts       glue        remaining
c 
c *  8.80 689  0 0   0    0    0  0% 0 923580 4062 76%
c {  9.55 727  0 0   0    0    0  0% 0 923580 4062 76%
c i  9.69 728  1 0   0    1    0 33% 0 923580 4039 76%
c i  9.69 728 16 0   0    3    1 32% 4 923580 4018 76%
c i 11.12 758 30 0  14  101   73 42% 9 923580 4016 75%
c i 11.23 758 32 0  16  108   79 43% 10 923580 4015 75%
c i 11.31 760 36 0  17  114   84 44% 12 923580 4014 75%
c i 11.71 764 49 0  29  168  134 47% 21 923580 4008 75%
c i 12.55 770 50 0  45  231  178 47% 21 923580 4002 75%
c i 12.55 770 50 0  46  233  179 47% 21 923580 4001 75%
c i 12.57 770 50 0  46  234  179 47% 21 923580 4000 75%
c i 12.57 770 49 0  46  235  179 47% 21 923580 3999 75%
c i 12.87 771 52 0  50  266  202 48% 23 923580 3998 75%
c i 13.08 773 54 0  57  296  226 48% 25 923580 3995 75%
c i 13.10 773 55 0  58  302  230 48% 25 923580 3994 75%
c - 14.88 746 55 1  59  302  230 48% 25 240008 3994 75%
c i 14.92 746 55 1  59  303  230 48% 25 240008 3993 75%
c i 14.96 746 57 1  60  308  233 48% 24 240008 3991 75%
c i 14.96 746 57 1  61  310  234 48% 24 240008 3990 75%
c i 14.97 746 58 1  62  312  235 48% 24 240008 3974 75%
c 
c  seconds   reductions  redundant   irredundant
c          MB    restarts       trail       variables
c           level   conflicts       glue         remaining
c 
c i 15.03 746 61 1  65  326  247 48% 26 240008 3973 75%
c i 15.06 746 62 1  66  327  247 48% 26 240008 3972 75%
c i 15.11 746 62 1  68  337  254 48% 27 240008 3971 75%
c i 15.23 746 62 1  73  363  277 48% 28 240008 3970 75%
c i 15.56 747 68 1  79  406  315 48% 28 240008 3969 75%
c i 15.64 747 70 1  81  412  320 48% 28 240008 3968 75%
c i 15.85 747 70 1  90  447  353 48% 29 240008 3967 75%
c i 15.99 747 74 1  93  460  361 48% 30 240008 3963 74%
c i 16.16 747 75 1  98  476  374 48% 30 240008 3962 74%
c i 16.18 747 74 1  99  480  377 48% 29 240008 3961 74%
c i 16.18 747 74 1  99  481  377 48% 29 240008 3960 74%
c i 16.26 747 75 1 101  490  385 48% 30 240008 3959 74%
c i 16.42 747 73 1 107  536  418 48% 30 240008 3958 74%
c i 16.44 747 72 1 107  548  429 48% 30 240008 3957 74%
c i 16.45 747 71 1 107  560  440 48% 29 240008 3956 74%
c i 16.45 747 71 1 107  561  440 48% 29 240008 3955 74%
c i 16.45 747 71 1 107  562  440 48% 29 240008 3954 74%
c i 16.47 747 71 1 107  567  444 48% 29 240008 3953 74%
c i 16.52 747 68 1 107  623  483 48% 29 240008 3952 74%
c i 16.55 747 64 1 107  702  536 49% 29 240008 3951 74%
c 
c  seconds   reductions  redundant   irredundant
c          MB    restarts       trail       variables
c           level   conflicts       glue         remaining
c 
c i 16.58 747 64 1 108  725  555 49% 29 240008 3950 74%
c i 16.87 748 66 1 117  773  602 49% 30 240008 3949 74%
c i 16.89 748 66 1 118  776  604 49% 30 240008 3948 74%
c i 16.93 748 66 1 121  788  615 49% 30 240008 3947 74%
c i 17.00 748 65 1 124  804  621 49% 30 240008 3946 74%
c i 17.08 748 64 1 124  823  638 49% 30 240008 3945 74%
c i 17.12 748 65 1 124  829  642 49% 30 240008 3944 74%
c i 17.13 748 66 1 124  836  644 49% 30 240008 3941 74%
c i 17.15 748 66 1 125  842  648 49% 30 240008 3940 74%
c i 17.15 748 66 1 126  843  648 49% 30 240008 3939 74%
c i 17.62 748 68 1 148  929  725 49% 32 240008 3938 74%
c } 18.05 749 71 1 166 1002  784 50% 34 240008 3938 74%
c [ 18.05 749  0 1 166 1002  784  0% 0 240008 3938 74%
c O 18.06 749  3 1 166 1003  785 30% 1 240008 3938 74%
c i 18.20 749  9 1 166 1038  803 38% 4 240008 3937 74%
c i 18.29 749 18 1 166 1060  823 44% 11 240008 3936 74%
c i 18.36 749 27 1 166 1103  856 50% 20 240008 3935 74%
c i 18.37 749 29 1 166 1119  867 50% 22 240008 3934 74%
c - 18.81 792 29 2 166 1130  771 50% 22 239658 3934 74%
c i 19.14 792 28 2 166 2049 1283 56% 24 239658 3933 74%
c 
c  seconds   reductions  redundant   irredundant
c          MB    restarts       trail       variables
c           level   conflicts       glue         remaining
c 
c - 19.40 791 27 3 167 2373 1099 56% 23 239655 3933 74%
c ] 19.74 791 27 3 167 3006 1498 41% 23 239655 3933 74%
c { 19.74 791 71 3 167 3006 1498 67% 34 239655 3933 74%
c F 19.74 791 71 3 168 3007 1499 67% 34 239655 3933 74%
c i 19.96 791 70 3 172 3058 1547 65% 33 239655 3932 74%
c i 20.01 791 70 3 172 3091 1571 64% 33 239655 3931 74%
c i 20.74 791 66 3 199 3410 1823 58% 33 239655 3930 74%
c i 20.87 791 67 3 207 3435 1846 58% 33 239655 3929 74%
c i 21.00 791 67 3 215 3477 1879 57% 33 239655 3928 74%
c i 21.05 791 67 3 217 3488 1888 57% 34 239655 3927 74%
c i 21.33 791 63 3 222 3691 2053 55% 32 239655 3926 74%
c - 22.02 790 60 4 222 4033 1753 52% 32 239634 3926 74%
c i 23.32 790 53 4 234 4723 2268 49% 29 239634 3925 74%
c i 23.69 790 54 4 243 4845 2368 48% 29 239634 3924 74%
c i 23.75 790 53 4 247 4889 2402 48% 29 239634 3923 74%
c i 23.76 790 53 4 247 4892 2404 47% 29 239634 3922 74%
c i 23.89 790 53 4 249 4997 2489 47% 29 239634 3921 74%
c d 24.22 790 53 4 249 5000 2492 47% 29 219495 3910 73%
c 2 24.28 790 53 4 249 5000 3798 47% 29 219425 3904 73%
c p 27.65 790 53 4 249 5000 7318 47% 29 219425 3817 72%
c 
c  seconds   reductions  redundant   irredundant
c          MB    restarts       trail       variables
c           level   conflicts       glue         remaining
c 
c d 27.98 790 53 4 249 5000 7152 47% 29 218726 3815 72%
c # 29.10 790 48 4 263 6008 7851 45% 27 218726 3815 72%
c - 29.68 744 47 5 268 6103 2368 45% 27 218726 3815 72%
c } 30.97 744 45 5 322 7006 3074 44% 26 218726 3815 72%
c [ 30.97 744 27 5 322 7006 3074 41% 23 218726 3815 72%
c - 31.72 744 23 6 323 8515 2908 42% 20 218726 3815 72%
c I 32.56 744 22 6 324 10012 4076 43% 20 218726 3815 72%
c - 33.76 745 25 7 326 11331 3664 42% 22 218726 3815 72%
c - 36.40 745 29 8 327 14546 4117 41% 25 218726 3815 72%
c 2 36.71 745 29 8 327 15001 5768 40% 25 218712 3815 72%
c p 38.54 745 29 8 327 15001 9545 40% 25 218712 3812 72%
c ] 38.63 745 29 8 327 15006 9549 40% 25 218712 3812 72%
c { 38.63 745 45 8 327 15006 9549 44% 26 218712 3812 72%
c B 38.67 745 45 8 327 15014 9554 44% 26 218712 3812 72%
c s 39.77 745 43 8 346 15659 9874 43% 26 216740 3812 72%
c v 43.90 745 43 8 346 15659 9874 43% 26 216609 3812 72%
c t 44.03 745 43 8 346 15659 9860 43% 26 216565 3812 72%
c e 44.73 745 43 8 346 15659 5795 43% 26 210986 1020 19%
c s 44.84 745 43 8 346 15659 5793 43% 26 210760 1020 19%
c - 46.82 667 39 9 358 18163 4764 68% 24 210760 1020 19%
c 
c  seconds   reductions   redundant   irredundant
c          MB    restarts        trail       variables
c           level    conflicts       glue         remaining
c 
c W 48.43 667 35 9 377 21019 6900 67% 23 210760 1020 19%
c - 48.80 667 34 10 407 22134 5288 67% 23 210760 1020 19%
c - 55.06 667 35 11 788 26504 5506 66% 22 210760 1020 19%
c F 56.30 667 34 11 817 28020 6608 66% 22 210760 1020 19%
c 2 57.32 667 33 11 825 30002 8512 66% 21 210758 1020 19%
c p 59.14 667 33 11 825 30002 10206 66% 21 210758 1010 19%
c d 59.35 667 33 11 825 30002 10089 66% 21 210568 1009 19%
c } 60.78 667 33 11 894 31006 10843 65% 21 210568 1009 19%
c [ 60.78 667 29 11 894 31006 10843 156% 25 210568 1009 19%
c - 60.96 667 28 12 894 31269 6339 153% 24 210568 1009 19%
c B 61.98 667 26 12 897 36022 9483 122% 23 210568 1009 19%
c - 62.30 667 26 13 897 36430 6856 120% 23 210568 1009 19%
c - 64.34 667 29 14 901 41988 7495 103% 24 210568 1009 19%
c W 65.96 667 29 14 901 45024 9621 98% 25 210568 1009 19%
c s 66.64 667 29 14 902 46423 10569 96% 25 210154 1009 19%
c v 68.82 667 29 14 902 46423 10569 96% 25 210056 1009 19%
c t 68.93 667 29 14 902 46423 10560 96% 25 210054 1009 19%
c e 69.59 667 29 14 902 46423 10527 96% 25 210043 998 19%
c s 69.75 667 29 14 902 46423 10527 96% 25 209573 998 19%
c - 71.37 667 29 15 902 47945 8049 93% 25 209573 998 19%
c 
c  seconds   reductions     redundant   irredundant
c          MB     restarts         trail       variables
c           level     conflicts        glue        remaining
c 
c p 72.72 667 28 15 902 50002 11610 91% 24 209573 998 19%
c - 74.15 667 29 16 902 54287 8615 87% 25 209573 998 19%
c O 74.35 667 29 16 903 55026 9169 87% 25 209573 998 19%
c - 76.89 667 27 17 908 61026 8041 83% 24 209573 998 19%
c ] 77.50 667 27 17 909 63007 9247 82% 24 209573 998 19%
c { 77.50 667 33 17 909 63007 9247 65% 21 209573 998 19%
c B 78.31 667 31 17 918 66027 11216 66% 21 209573 998 19%
c - 79.74 667 31 18 984 68161 8599 66% 21 209573 998 19%
c p 82.26 667 28 18 1050 75002 15280 65% 20 209573 998 19%
c - 82.68 667 28 19 1068 75693 9001 65% 20 209573 998 19%
c W 85.57 667 28 19 1257 78029 10723 65% 20 209573 998 19%
c } 86.26 667 28 19 1273 80170 12075 65% 20 209573 998 19%
c 1 86.26 667 28 19 1273 80170 12075 65% 20 209573 998 19%
c 
c --- [ writing output ] -----------------------------------------------------
c 
c writing simplified CNF to DIMACS file 'simp/26.cubes874.adj.simp1'
c * 86.26 667 28 19 1273 80170 12075 65% 20 209573 998 19%
c opening file to write 'simp/26.cubes874.adj.simp1'
c writing 'p cnf 5320 209573' header
c closing file 'simp/26.cubes874.adj.simp1'
c after writing 83872880 bytes 80.0 MB
c wrote 209573 clauses in 0.66 seconds process time
c 
c --- [ writing extension ] --------------------------------------------------
c 
c writing extension stack to 'simp/26.cubes874.adj.ext1'
c opening file to write 'simp/26.cubes874.adj.ext1'
c closing file 'simp/26.cubes874.adj.ext1'
c after writing 176253 bytes 0.2 MB
c wrote 7775 witnesses in 0.00 seconds process time
c 
c --- [ result ] -------------------------------------------------------------
c 
s SATISFIABLE
c 
c --- [ run-time profiling ] -------------------------------------------------
c 
c process time taken by individual solving procedures
c (percentage relative to process time for solving)
c 
c        58.17   75.09% search
c        37.31   48.16% unstable
c        19.29   24.91% simplify
c        19.12   24.69% stable
c         8.80   11.35% parse
c         8.45   10.91% probe
c         6.49    8.38% vivify
c         2.60    3.35% elim
c         0.98    1.27% walk
c         0.75    0.97% lucky
c         0.52    0.67% subsume
c         0.18    0.23% ternary
c   =================================
c        77.46   89.12% solve
c 
c last line shows process time for solving
c (percentage relative to total process time)
c 
c --- [ statistics ] ---------------------------------------------------------
c 
c chronological:             13799        17.21 %  of conflicts
c conflicts:                 80170      1034.92    per second
c decisions:                174346      2250.65    per second
c eliminated:                 2803        52.69 %  of all variables
c fixed:                      1505        28.29 %  of all variables
c learned:                   78575        98.01 %  per conflict
c learned_lits:           14927470       100.00 %  learned literals
c minimized:                     0         0.00 %  learned literals
c shrunken:                9288202        62.22 %  learned literals
c minishrunken:            1280112         8.58 %  learned literals
c propagations:            7672719         0.10 M  per second
c reduced:                   42420        52.91 %  per conflict
c rephased:                     12      6680.83    interval
c restarts:                   1273        62.98    interval
c stabilizing:                   3        52.39 %  of conflicts
c substituted:                  14         0.26 %  of all variables
c subsumed:                  27428         1.28 %  of all clauses
c strengthened:               8539         0.40 %  of all clauses
c ternary:                    4418         0.46 %  of resolved
c vivified:                    261         0.01 %  of all clauses
c walked:                        3     26723.33    interval
c weakened:                   6270         3.11    average size
c 
c seconds are measured in process time for solving
c 
c --- [ resources ] ----------------------------------------------------------
c 
c total process time since initialization:        86.92    seconds
c total real time since initialization:           87.12    seconds
c maximum resident set size of process:          884.85    MB
c 
c --- [ shutting down ] ------------------------------------------------------
c 
c exit 10
WARNING! DIMACS header mismatch: wrong number of variables.
============================[ Problem Statistics ]=============================
|                                                                             |
|  Number of variables:          2943                                         |
|  Number of clauses:          209577                                         |
|  Parse time:                   1.13 s                                       |
|  Simplification time:          0.02 s                                       |
|                                                                             |
============================[ Search Statistics ]====================================================
| Conflicts |          ORIGINAL         |          LEARNT          | Num Sols |      SUBGRAPHS      |
|           |    Vars  Clauses Literals |    Limit  Clauses Lit/Cl |          | Canonical Noncanon. |
=====================================================================================================
|       107 |    2866   209584 18700992 |     2000      107     95 |        0 |        16         7 |
|       258 |    2866   209585 18701074 |     2000      258    102 |        0 |        31         8 |
|       486 |    2866   209588 18701115 |     2000      486    109 |        0 |        42        11 |
|       831 |    2866   209596 18701381 |     2000      831    115 |        0 |        49        19 |
|      1573 |    2866   209832 18706999 |     2000     1573     98 |        0 |        96       255 |
|      2344 |    2866   209844 18707362 |     3600     1344     74 |        0 |       126       267 |
|      3495 |    2866   209856 18707871 |     3600     2495     97 |        0 |       137       279 |
|      5260 |    2866   209913 18709268 |     5002     2462     75 |        0 |       167       336 |
|      7886 |    2866   209977 18710950 |     6303     2589     65 |        0 |       221       400 |
|     11776 |    2866   210023 18712054 |     7554     3330     69 |        0 |       237       446 |
|     17796 |    2866   210277 18719167 |     8780     5576     79 |        0 |       372       700 |
|     26821 |    2866   210653 18728214 |    11202     5223     50 |        0 |       521      1076 |
|     40274 |    2866   211132 18738118 |    13604     6878     52 |        0 |       673      1555 |
|     62090 |    2866   213487 18784731 |    16008    14498     67 |        0 |      1323      3910 |
|     93301 |    2866   215506 18821134 |    20809    10110     43 |        0 |      1876      5929 |
|    138297 |    2866   216713 18842683 |    24404    22101     70 |        0 |      2277      7136 |
|    205490 |    2866   218222 18868184 |    30422    22312     71 |        0 |      2793      8645 |
|    309285 |    2866   223491 18946415 |    37613    25898     68 |        0 |      4389     13914 |
|    463931 |    2866   230348 19065266 |    46014    36345     76 |        0 |      5905     20771 |
|    693156 |    2866   237890 19179379 |    56816    36972     69 |        0 |      7510     28313 |
|   1026962 |    2866   239171 19217630 |    68818    59780     79 |        0 |      8101     29594 |
|   1526810 |    2866   240231 19250239 |    84418    65628     76 |        0 |      8588     30654 |
|   2301719 |    2866   266958 19925693 |   103615    93334     79 |        0 |     12779     57381 |
|   3469199 |    2866   312164 20871683 |   127606   110805     73 |        3 |     22169    102584 |
|   5293973 |    2866   453527 23867764 |   158838    81811     39 |        3 |     44008    243947 |
|   7919751 |    2866   554189 26200347 |   193635   161386     67 |        3 |     54277    344609 |
|  11975735 |    2866   822498 30628781 |   238024   236159     68 |        3 |     84997    612918 |
|  18430878 |    2866  1596129 44692074 |   296834   154712     31 |        3 |    132229   1386549 |
=====================================================================================================
Number of solutions   : 3
Canonical subgraphs   : 190096         (20 /sec)
          order  3    : 1              (142857 /sec)
          order  4    : 1              (500000 /sec)
          order  5    : 1              (200000 /sec)
          order  6    : 1              (55556 /sec)
          order  7    : 2              (10101 /sec)
          order  8    : 4              (2077 /sec)
          order  9    : 9              (432 /sec)
          order 10    : 31             (115 /sec)
          order 11    : 125            (31 /sec)
          order 12    : 637            (11 /sec)
          order 13    : 4708           (11 /sec)
          order 14    : 78206          (19 /sec)
          order 15    : 58969          (23 /sec)
          order 16    : 29086          (20 /sec)
          order 17    : 13814          (17 /sec)
          order 18    : 3446           (17 /sec)
          order 19    : 825            (17 /sec)
          order 20    : 227            (25 /sec)
          order 21    : 3              (1 /sec)
Noncanonical subgraphs: 2208391        (154 /sec)
          order  3    : 0              (-nan /sec)
          order  4    : 0              (-nan /sec)
          order  5    : 0              (-nan /sec)
          order  6    : 0              (-nan /sec)
          order  7    : 0              (-nan /sec)
          order  8    : 0              (-nan /sec)
          order  9    : 0              (-nan /sec)
          order 10    : 0              (-nan /sec)
          order 11    : 0              (-nan /sec)
          order 12    : 0              (-nan /sec)
          order 13    : 10772          (7556 /sec)
          order 14    : 171286         (985 /sec)
          order 15    : 1994819        (143 /sec)
          order 16    : 27914          (193 /sec)
          order 17    : 3363           (68 /sec)
          order 18    : 3              (112 /sec)
          order 19    : 5              (34247 /sec)
          order 20    : 0              (-nan /sec)
Canonicity checking   : 9689.54 s
Noncanonicity checking: 14347.7 s
Total canonicity time : 24037.2 s
database reductions   : 283
restarts              : 32767
conflicts             : 24560892       (679 /sec)
decisions             : 31891446       (0.00 % random) (882 /sec)
propagations          : 1232274803     (34070 /sec)
conflict literals     : 2459301084     (56.73 % deleted)
actual reward         : 0.237965
Memory used           : 865.00 MB
CPU time              : 36169.3 s

UNSATISFIABLE
